p cnf 150 240
-5 -7 88 0
56 3 -138 0
6 -61 15 0
72 -100 -17 0
43 -5 117 0
105 -8 -101 0
119 -42 74 0
5 108 -75 0
49 -94 134 0
-86 73 145 0
78 -138 39 0
-106 135 -26 0
76 20 -18 0
-54 108 8 0
6 84 66 0
141 8 32 0
77 -106 40 0
145 -100 -40 0
141 115 124 0
98 46 115 0
-83 63 82 0
40 -126 48 0
112 42 -69 0
-53 111 114 0
66 -142 -20 0
103 127 81 0
85 -30 -53 0
-2 73 146 0
7 3 137 0
-68 -112 -138 0
66 137 -139 0
-136 102 121 0
-55 2 100 0
-6 -62 -36 0
-117 -55 67 0
-65 -150 127 0
-120 39 80 0
-17 15 -73 0
-127 -17 -5 0
-79 31 6 0
-142 128 -28 0
-93 4 -94 0
-52 -60 -41 0
-24 5 136 0
138 -16 -139 0
115 -80 -82 0
20 -62 -73 0
23 -133 17 0
145 -77 -18 0
-54 69 -115 0
-126 79 4 0
-96 -115 98 0
-20 -67 136 0
51 -5 -124 0
40 137 127 0
52 136 -81 0
-45 59 82 0
-83 132 -112 0
90 -39 -19 0
-93 -20 116 0
-122 -22 -101 0
-131 138 -120 0
123 -105 -19 0
65 29 -135 0
25 123 53 0
80 -40 -127 0
-90 -27 36 0
97 -127 145 0
86 37 -102 0
-38 -59 -140 0
-77 -87 137 0
69 137 99 0
123 33 -87 0
-130 -1 102 0
-131 85 93 0
27 -38 42 0
-109 82 68 0
79 -54 -10 0
39 135 -50 0
-93 45 -53 0
-43 121 -20 0
52 70 -104 0
104 -9 -13 0
64 29 -36 0
-71 -133 52 0
-41 115 -95 0
-98 131 -97 0
-2 -32 103 0
142 -21 84 0
-44 62 -29 0
23 -125 127 0
-14 15 7 0
81 -128 -145 0
-16 -38 19 0
-52 -35 -88 0
-88 101 -138 0
-114 81 -39 0
145 91 -12 0
-17 7 -62 0
59 -32 -72 0
22 138 -31 0
-91 84 -112 0
-63 -146 33 0
47 81 33 0
-102 125 83 0
-34 -146 -72 0
-17 -125 29 0
10 -111 -67 0
-144 138 -108 0
-133 145 111 0
15 -147 150 0
-104 59 72 0
64 -28 -6 0
-46 -67 38 0
-136 -118 -14 0
-89 113 -65 0
12 62 43 0
16 109 -41 0
122 78 -47 0
-138 17 80 0
35 17 -59 0
86 -33 64 0
-67 -73 93 0
50 -85 -58 0
22 59 12 0
34 -38 -103 0
-23 96 148 0
89 -141 -126 0
-36 71 -77 0
-129 -69 -82 0
-69 -17 22 0
-114 -96 124 0
77 124 115 0
57 1 -146 0
84 -46 75 0
34 -95 77 0
-105 -65 -146 0
127 143 131 0
-55 -101 35 0
-142 53 132 0
-96 66 19 0
101 85 80 0
-10 121 -115 0
54 107 -136 0
-119 -130 116 0
-139 81 -26 0
121 -58 -21 0
95 146 -113 0
-10 32 90 0
-51 -37 85 0
x -2 5 6 -7 8 16 -18 -19 20 -22 -23 -24 25 28 -31 32 -33 -35 -36 -37 -38 39 -46 49 55 -57 -58 64 -71 -73 -74 75 -78 79 -80 81 82 -84 -87 -88 89 90 -91 -93 94 -95 -98 100 101 -102 -103 104 -107 -111 -112 113 115 116 -118 -121 122 123 -124 -125 -126 -127 -128 130 132 -135 -137 139 -141 -143 145 146 -149 0
x 3 5 6 9 10 11 -14 -15 -16 -20 -21 24 25 26 27 -29 -30 -31 34 35 36 38 -39 -41 43 -44 47 -48 54 -57 -58 -60 61 -63 -64 -65 -69 -71 72 -73 -76 -77 -80 -83 -87 88 92 93 95 -96 97 -99 -103 -110 -113 -114 -116 -118 119 120 122 -123 124 127 129 131 -138 -139 141 -143 145 146 147 -148 0
x 3 5 11 12 13 -15 16 19 -20 21 22 26 29 31 -33 35 40 -41 42 43 44 46 47 -48 49 -58 -63 -64 65 -67 -68 -70 71 72 -74 -77 -83 -84 90 -91 92 93 -97 98 101 103 106 -107 110 111 -112 114 -119 122 123 -124 125 129 130 132 -136 -138 -139 -140 -143 146 148 149 0
x 2 -3 4 -7 8 -17 18 -19 -21 23 -24 -32 -33 -35 -36 -37 39 41 44 -46 47 -48 -49 -50 -51 -52 53 -55 56 57 59 -62 -67 68 69 71 -72 75 -76 80 -81 83 84 -86 -87 88 -90 91 -92 -93 96 99 100 103 105 106 108 -109 -110 111 -114 -116 117 118 119 120 -122 -124 125 127 129 -130 -131 -136 -137 -138 141 143 -144 145 -146 -148 149 150 0
x 1 2 3 4 8 9 -10 13 -16 18 19 21 23 -24 25 26 27 -30 -34 -35 -44 -45 -46 53 54 -55 56 -62 -65 70 -71 74 -75 -76 -81 82 -84 -86 -87 -89 92 -95 96 97 98 99 -100 -102 -103 106 -107 110 113 114 -115 -120 -124 125 126 127 128 129 132 -138 141 -142 -143 146 147 -148 0
x 1 -2 5 -10 11 13 -14 15 16 -18 -19 -22 23 -24 28 -34 35 37 38 -39 40 -42 -46 -47 -48 51 53 -57 59 61 -63 67 69 -71 -72 73 -74 -78 -79 81 83 84 -86 -87 -89 90 94 95 96 -97 -100 107 108 110 -112 -113 114 -115 121 -123 124 -126 127 -128 129 130 131 -134 139 142 -143 -144 147 0
x 3 7 -9 -10 -12 -13 14 16 18 19 23 26 27 -28 29 -31 -33 35 36 -39 -41 43 -44 -45 48 49 -50 -54 -55 -56 -58 61 -62 63 -64 -65 66 68 -70 -74 -75 -76 78 80 81 82 86 -89 92 -93 -94 -95 97 99 102 -104 107 108 114 -116 117 122 123 -126 130 133 134 137 -138 139 140 141 144 147 0
x -1 3 -5 7 8 9 -10 12 -13 16 18 19 -23 -28 29 35 36 -37 -38 39 -40 41 43 44 -46 -47 48 52 53 54 56 57 -59 -61 -62 64 65 -67 69 72 -75 -77 79 80 -84 86 87 -91 -92 93 -94 -98 -100 101 -105 -108 -110 111 113 114 -116 -118 119 122 123 124 -125 -126 -132 133 -135 137 138 143 147 -148 0
x -1 -6 7 -8 9 -12 -14 -15 -16 17 18 -19 -20 21 22 24 27 29 -30 32 33 -37 -42 44 46 49 -50 51 53 -56 -57 -58 -59 -63 -64 65 66 68 69 -71 -72 75 76 -77 -79 84 90 91 -93 -95 98 -99 100 -103 -105 -107 -108 109 -111 113 -114 -115 -119 122 -123 125 -128 131 133 136 -137 138 139 140 -141 -142 143 145 -146 -147 -149 -150 0
x -1 -2 -7 -8 9 -10 -11 -12 13 -14 20 -21 29 32 -33 36 38 -39 -40 42 47 52 -58 59 -63 -69 70 -72 73 74 76 -80 81 83 -84 -90 -91 -92 93 99 100 101 -103 -104 -107 108 109 110 111 112 -114 -115 119 121 -126 -131 -132 -137 -139 -140 -141 142 143 -144 -145 146 -147 148 0
x 1 3 -5 -6 8 -11 -12 -13 14 17 19 -21 -22 -23 -24 -26 28 29 30 -31 -35 -36 39 -40 42 46 47 48 49 50 -53 54 -55 58 -62 -63 64 66 71 -72 75 76 -77 -79 -80 -81 82 83 84 -89 91 -92 93 95 96 98 99 103 104 106 114 -115 116 -121 122 -124 126 128 133 -138 139 140 141 142 -148 149 0
x -4 10 11 -13 15 -17 25 27 28 -31 35 37 -41 -42 43 44 -53 -54 57 -62 -63 -67 -71 75 -76 77 -80 81 86 -90 91 -95 -96 97 101 104 105 -106 -107 108 -109 -110 -113 -116 117 121 -122 -123 -126 -128 130 -132 133 136 140 -141 142 144 -146 150 0
x 1 2 5 -7 -8 -9 -12 -16 -17 -18 19 -21 22 24 26 28 31 36 38 -39 43 -44 -46 -47 48 50 52 -53 58 59 60 -61 63 -64 -65 68 -70 73 75 -77 -78 -79 80 -81 -84 -86 87 -88 -92 96 -97 -98 101 -102 -103 -106 107 -108 110 -111 -112 -114 116 -117 -118 -123 -128 -129 -137 -138 141 142 -144 146 149 0
x -2 5 -6 -7 8 10 -12 -13 -14 16 -18 20 22 -23 -25 26 -27 -28 29 32 33 -34 -39 41 43 47 -49 -50 -54 -55 57 58 61 62 -67 68 -69 -71 74 75 -76 78 81 -82 83 -86 87 88 -89 -92 -93 96 98 -99 100 102 103 -107 109 -110 111 112 116 121 -122 125 127 128 -129 -136 139 140 -141 143 -144 -147 -148 -150 0
x -2 -4 11 -12 13 -15 16 18 -19 -20 -21 -25 -26 30 -31 -35 -36 38 -39 40 -43 -44 50 -54 -57 58 64 66 69 72 -74 -75 78 -84 -86 -87 90 92 -95 96 100 -101 105 -106 107 108 114 -116 -117 118 -121 122 124 125 130 131 -134 -135 -138 -141 143 -145 -148 0
x -1 2 -3 -4 7 -8 9 -10 -11 -15 19 21 26 28 34 35 -36 37 38 39 41 42 43 49 50 52 -53 -54 -55 -56 60 61 66 -69 71 75 80 -81 -82 -83 -86 -87 88 89 -94 95 -101 103 -104 -105 108 -109 -110 115 -118 120 121 -122 123 124 129 -130 132 -133 -135 -138 140 142 -144 147 -148 -149 0
x -1 2 -4 6 -7 8 9 12 15 17 18 -20 23 25 -26 27 -28 29 31 -32 34 -35 38 41 42 -45 -47 48 -49 -51 -52 53 -54 56 -57 59 60 62 65 67 68 71 -72 -73 -74 -76 -77 -78 -79 80 81 82 85 -87 88 -89 -90 91 92 93 96 97 100 -101 102 -103 104 105 107 109 -110 112 113 -114 116 117 -118 120 -121 125 126 -127 -131 -132 -134 138 -139 -140 -141 142 -143 -144 -145 146 -149 0
x 1 2 3 7 -10 -12 13 -14 -18 -19 -21 -22 24 -25 -27 -30 35 37 39 41 42 44 45 46 -49 -50 -51 -52 -53 -55 -56 59 -60 -61 -62 -64 -68 -69 72 -74 -79 80 82 85 86 -88 -90 92 98 99 101 102 -103 -107 108 109 114 120 121 124 125 -126 -127 -128 130 131 132 133 135 136 -137 141 144 -147 -149 0
x 1 4 6 -7 9 -11 -12 -13 -14 -16 -22 -23 -24 -26 29 -31 32 33 37 38 40 -41 47 51 -56 59 60 61 -63 66 -68 -69 -70 -74 -76 -77 -81 84 -85 88 -89 90 91 95 -96 -97 101 102 -106 -107 110 112 113 116 117 -118 120 -123 132 -133 -135 137 139 -142 -143 144 -145 0
x 1 -5 7 8 9 -11 12 -14 -17 -20 21 -22 -23 -24 26 -31 32 36 -39 -42 43 44 -51 -53 -54 -56 57 -59 -61 65 -66 -67 69 -70 -71 72 74 -76 -80 -81 -83 -84 -86 87 -89 -93 95 -97 -99 -100 -101 102 -106 107 109 111 -113 -115 117 122 123 125 -126 -130 -133 -134 -135 138 139 143 -144 -146 0
x -3 6 8 -10 -12 13 -14 -16 18 19 21 24 -25 28 31 32 -35 -36 -37 -41 -44 48 49 -51 -52 54 55 57 60 -66 -67 -71 -72 74 -78 79 -81 82 83 84 -85 86 88 -91 92 93 -97 -98 -100 -103 106 -108 109 111 -116 119 120 -121 -125 127 130 -135 140 141 -143 -146 -147 -149 0
x 2 4 10 14 -15 -17 -18 -19 21 -23 -26 -33 -35 -37 -38 39 -45 47 50 -52 53 55 -56 57 -63 66 68 -69 71 -72 -73 77 78 -79 80 81 84 85 87 -88 -91 -92 -97 98 -100 -101 -102 -105 -107 111 117 -119 -120 121 122 -123 124 -126 127 128 -133 134 -135 -138 140 144 145 146 -148 149 0
x -1 8 9 -15 17 18 -20 22 23 -26 -27 28 30 -31 -32 -34 36 37 -38 -39 41 45 47 -53 54 -57 -58 -61 -63 64 65 -66 68 69 71 73 -78 83 86 -89 -91 92 94 -95 -101 -103 -105 108 -111 -112 114 -115 -116 -118 120 121 125 -129 -132 -133 134 -135 136 -137 -142 143 146 -147 -148 -149 0
x -1 2 4 -5 7 8 10 11 13 16 -17 18 -21 23 26 28 32 -35 -36 37 -40 42 -45 -48 -50 -51 -53 -58 -61 -64 -65 67 71 72 -80 82 -83 -84 85 -86 89 -95 -96 99 100 102 106 107 108 -110 -111 -112 113 119 -120 -121 123 -124 -125 126 -128 -132 134 -138 139 141 142 -143 144 145 -146 -147 -148 149 0
x -4 -6 -7 8 11 13 -14 -16 17 -18 19 21 23 24 25 26 36 39 -41 -42 -43 44 45 47 50 -51 -53 -57 59 62 63 -65 66 79 81 82 84 -85 -88 90 -92 93 94 -95 96 -97 98 103 104 105 -107 -108 -115 -116 -117 -118 -119 -120 -121 -123 -124 128 129 130 -131 -132 134 136 -137 138 -140 -141 142 143 -144 -145 146 0
x -2 -4 -12 -16 -17 -18 -20 -21 -24 -25 28 29 30 38 39 -42 44 -46 -48 -51 57 59 -60 -62 63 -65 -67 68 69 -70 71 -72 73 74 -77 79 81 82 84 86 87 90 -95 96 -97 -101 -103 -104 108 -115 -116 -117 -118 -121 -122 123 -125 -126 -129 131 132 -134 137 138 139 -140 -141 142 -143 -149 -150 0
x -1 3 5 -6 -7 -10 12 13 16 18 21 24 -30 31 -34 38 -41 -43 -44 -45 -46 -47 -48 -50 -53 -54 56 59 -63 -64 -66 -67 68 69 -70 -71 74 -75 76 78 80 85 -86 88 90 -91 -92 -95 97 -98 -99 103 -104 -105 -106 111 112 113 -118 119 121 -124 125 126 127 -128 129 -131 -136 137 -138 139 -140 -144 -145 -146 -147 -148 0
x -2 -3 -5 -7 8 -9 -11 -15 17 18 19 -20 -22 27 30 -34 -35 -38 -39 -40 41 -43 44 -46 -47 -48 50 51 52 56 -61 62 -63 65 -66 -72 73 -74 76 -80 -82 -83 -85 -86 88 -89 -90 -92 93 95 -96 -97 -100 -103 104 -106 107 -108 109 111 -113 -114 117 119 -120 121 123 -127 130 -132 -133 135 -138 -139 -143 -144 -145 -147 150 0
x 1 -2 -3 -5 6 7 -9 10 12 13 -14 15 16 18 19 -21 -22 23 24 25 -28 31 32 -33 -34 -36 38 -40 42 -44 -47 -48 -52 53 -55 -61 64 65 -66 69 -72 75 78 -80 -81 -82 -83 -87 -88 -89 90 -91 93 94 96 -99 -102 -105 -106 109 110 -112 114 116 117 -118 -121 122 -126 -127 128 129 -130 -133 -135 136 137 138 -140 141 -142 -143 -145 147 148 149 0
x -1 -2 -3 9 10 -13 -16 -19 -20 21 -22 25 26 -30 31 32 35 -37 38 41 -42 -45 49 50 51 -52 -53 56 60 62 -63 64 66 -68 -71 -74 -77 -78 81 -82 -83 -85 -87 88 89 90 92 -93 -94 95 98 99 102 -103 105 -106 -108 -109 111 113 116 119 120 121 125 127 132 133 136 -137 -138 141 -144 145 146 148 150 0
x -1 4 5 -6 7 9 10 -13 -16 -18 -19 -20 21 23 25 -26 27 -31 33 -37 -38 39 -40 41 -42 43 46 47 48 -49 50 -51 52 53 -56 -63 68 -70 -72 73 -75 77 -79 -80 -81 82 87 -89 -90 -91 -92 -93 -96 -98 100 -101 104 -107 108 109 110 -113 114 -115 117 118 120 -122 124 -125 -126 127 129 -132 134 -137 138 -139 -140 143 146 -147 149 0
x 6 -8 -9 10 -11 -12 -13 -16 18 -19 20 -21 22 -24 -25 27 -29 -31 32 33 -34 36 38 39 41 -42 45 47 -48 53 -57 58 59 -62 65 66 -68 70 74 82 83 -85 88 89 -90 91 96 -97 98 99 -100 101 -102 -103 -106 -107 110 -115 -124 130 131 132 -135 141 142 -144 -145 146 149 0
x -3 5 6 -7 11 -13 15 17 18 -21 -22 -23 -24 -28 -32 33 -34 -36 38 41 42 -44 -48 -52 53 -55 -56 58 -60 -62 66 -67 -68 69 -71 -72 -73 75 -76 -79 -82 83 -86 87 88 -89 91 92 -95 -96 99 103 -105 106 -111 112 -114 -115 -117 119 120 121 122 126 127 -129 130 -133 134 138 142 146 0
x 1 -2 -3 5 -6 7 10 -15 -17 18 20 21 -22 -24 27 28 32 35 36 -37 39 41 43 -44 45 50 -52 53 -57 -58 -66 -68 70 74 75 78 -81 82 -87 88 89 93 -97 100 104 -105 109 112 114 117 120 -123 -124 -125 -126 -127 131 132 136 137 -138 141 143 -149 150 0
x 1 -3 -7 -8 9 11 13 -14 -15 -18 19 20 -21 -22 -23 -25 27 31 -32 35 -39 -41 42 -44 -45 -46 47 48 -49 50 53 -55 -56 58 61 -63 64 -66 -68 -72 -73 77 -79 80 84 86 89 -91 -92 -93 -94 97 -100 -103 104 -105 110 118 119 122 -123 -126 -127 -128 -129 130 -131 -133 -141 142 -149 -150 0
x 1 2 -6 8 -11 13 15 19 20 -21 -25 26 27 30 -34 35 36 40 -41 45 46 -47 49 -55 57 60 -61 62 63 -65 66 67 68 71 74 77 78 79 -81 -86 88 -90 -91 92 96 98 -99 -101 102 -104 105 -106 -107 108 -110 113 -114 117 121 130 -131 -132 134 -135 -139 -144 -148 150 0
x 1 -2 -4 6 -7 8 11 -16 -17 -19 21 -24 26 -27 -33 -37 -40 41 43 -44 45 48 51 -52 -54 -55 57 -58 -60 -61 62 63 -67 -70 -73 -74 -75 77 79 -80 -85 -88 92 93 96 98 -102 105 -106 -107 -108 -109 -110 111 -115 116 -118 -119 -130 -132 133 -135 137 -138 -144 -149 150 0
x -1 5 -6 9 -10 -15 16 18 19 -21 -23 24 -25 26 27 28 -30 31 -33 34 35 -36 39 40 41 42 -43 -45 -46 -48 -49 -51 52 55 -56 -58 60 62 -63 -65 -66 67 -70 -71 72 73 -74 76 -79 -81 82 85 -87 88 92 -95 96 97 -99 102 -104 -105 -108 109 -110 -113 -114 -115 117 118 -120 122 123 -124 -126 127 129 -131 -132 133 -136 -140 141 143 144 -147 148 -149 150 0
x 1 3 4 5 6 -9 11 -13 -15 17 19 20 -22 -24 25 27 28 -29 -31 -32 -33 37 38 39 -41 -45 -46 56 59 -60 -62 63 66 68 -69 -72 73 76 -79 -80 82 -84 -85 88 89 -90 -91 -92 -93 94 -96 -99 -101 -102 103 105 -106 -110 111 113 -115 -117 118 -120 -123 124 128 -129 133 -135 -137 -139 140 -141 144 147 150 0
x -2 3 -5 -7 9 13 15 16 17 -23 24 -26 29 -33 -36 38 41 -42 -44 -51 56 -57 58 -60 -62 -65 -66 -67 68 69 70 73 -75 79 -80 81 83 84 -85 86 -87 -88 89 95 96 98 -99 -105 -108 -110 114 -117 -119 120 122 -123 -127 -129 132 -133 134 -136 -138 140 -141 -142 143 -146 149 0
x -2 6 7 11 -12 20 -22 -25 27 28 -29 31 -32 -34 36 -37 -38 39 -40 43 -45 -47 -48 49 50 -52 53 54 55 -57 58 -59 -60 61 -64 -69 70 74 76 -77 81 -82 -83 -85 88 -89 90 91 94 95 97 -98 -99 103 105 108 -112 -113 114 -115 118 120 121 -122 -125 -126 127 -128 -134 -136 137 139 141 143 145 -146 -150 0
x 4 5 6 -7 10 -11 12 13 14 16 17 19 21 22 23 -26 28 29 -32 -34 41 -43 44 45 47 -50 -51 53 -54 -57 59 -60 -61 -63 -64 -67 69 -70 -71 -74 76 -78 -79 81 -82 86 87 88 92 -94 -95 -98 102 104 -106 -108 -109 -110 113 114 120 -122 -123 124 -129 -130 136 -138 141 142 143 -144 146 -150 0
x 2 -3 -4 5 6 7 -8 15 -16 -18 -19 -20 21 -22 24 25 -26 32 -34 36 38 44 45 -46 47 -54 -55 -65 -69 -70 -75 -76 77 78 -80 -81 -83 -84 87 88 89 92 94 -95 97 -101 -106 111 -112 -116 -117 121 -122 123 -124 -128 129 -130 132 -137 138 -140 141 142 -143 -144 -149 -150 0
x -4 -7 8 10 11 -13 -14 17 18 -20 -21 26 -28 31 -43 -45 -46 -49 55 -58 -60 62 63 65 66 -67 70 -71 -72 -74 -77 -78 -81 -86 -88 -90 -94 -95 -96 -97 -98 -99 100 -103 -106 -107 110 112 113 116 117 -123 125 126 -127 -129 -130 134 135 -137 -141 146 -147 -148 0
x 2 -3 -4 -5 7 -10 -12 14 -15 16 -19 -20 21 23 -27 -28 30 31 32 -34 -37 38 40 41 42 45 46 -49 52 55 56 58 60 61 -63 -66 67 68 71 -73 -79 81 -82 -83 84 86 89 93 -96 98 -99 -100 101 102 103 -104 -106 108 110 -111 -112 -113 -116 -120 121 122 123 125 -126 127 -128 130 -132 138 140 -141 142 143 -145 -149 -150 0
x 4 -5 -7 -10 -11 -13 -14 -15 18 19 -20 21 22 -24 -26 -27 29 30 31 36 37 -39 40 -43 45 -48 49 -52 54 59 60 -63 -65 -66 67 71 -72 74 78 79 -80 82 85 -88 -89 -90 -91 -94 97 -98 -100 102 103 -105 -106 -107 108 -109 111 -112 -114 -115 -116 119 -120 -121 -123 125 -126 127 128 131 133 -134 -135 139 -140 142 149 150 0
x -1 -2 -3 -4 6 -10 -11 13 -14 -17 -19 21 26 -27 -28 -29 -30 36 -37 -39 44 45 -46 -48 51 -52 57 62 64 65 -66 67 -68 69 -70 77 -79 81 -82 87 -88 -92 94 -96 97 98 99 -102 -103 105 -107 -111 -112 113 116 -117 -119 120 -121 -124 -125 -127 130 131 -135 137 139 -141 142 143 147 -148 149 0
x 2 -5 7 -8 -9 -11 12 -14 -17 18 -19 21 -23 24 25 -31 -34 35 38 39 40 -41 42 44 -45 -46 47 -48 -50 -55 -56 58 59 -60 61 62 -63 64 -67 -69 -72 77 78 -79 -81 -87 -88 90 92 93 -95 96 -98 -100 103 -108 -112 -113 -114 116 -117 -119 -120 121 123 -124 -125 -127 -129 -131 132 -133 -139 -145 146 150 0
x -1 -3 -5 8 9 11 13 16 17 -20 24 -25 27 -29 -30 -33 -35 37 -38 -39 -40 -44 45 -46 49 -54 -56 57 -62 -63 -64 65 66 67 70 74 -76 -77 78 82 -85 -86 88 89 90 93 94 -97 -98 -99 -100 101 -102 -105 106 -110 111 113 -114 117 -119 120 -123 125 128 131 -132 -135 -138 139 140 143 -144 -147 -149 0
x 2 4 5 -7 -14 -16 17 18 20 -22 -24 25 -28 -29 -31 32 -36 39 -41 -43 44 -45 46 -47 50 52 53 -56 -57 58 59 60 -62 -63 -64 65 68 -70 71 72 74 76 77 78 79 80 -83 85 86 88 -89 92 93 94 -95 -97 -100 -102 103 -105 -106 107 -108 -110 112 114 116 117 -118 120 -123 -125 -128 -131 132 -133 134 136 -137 -139 141 -143 147 -148 -149 -150 0
x -3 5 -7 9 -10 -13 18 19 -21 -22 -25 -27 -28 -29 32 33 34 35 -36 -37 39 45 46 50 51 -53 62 63 66 67 -68 -69 -74 -79 -81 -82 83 -86 -87 89 90 -94 -95 97 -99 -100 102 103 108 112 113 -115 -117 119 121 -123 -125 127 -128 -129 -132 -135 -136 142 143 -144 -145 146 0
x -3 -4 -5 -10 13 16 -17 -18 -21 -22 -23 -25 -28 29 -31 -33 -37 -38 -39 -40 41 42 43 -44 45 49 -52 53 55 56 -58 -62 -67 69 -70 73 75 76 -77 -79 -80 81 -82 -84 -85 86 89 -91 -95 -97 99 101 102 104 -107 -109 111 115 116 117 -118 123 -126 -127 130 -131 -133 -134 -135 -138 139 -140 143 0
x -1 -2 -3 5 8 -9 -10 -11 12 -13 -16 17 19 20 21 22 -23 -30 -32 33 34 -36 37 38 39 41 42 -46 47 48 -49 -50 52 -55 61 62 63 65 66 -67 71 72 73 -75 -77 79 80 -81 82 -87 92 94 -98 -102 105 -107 108 -109 110 112 -113 -114 115 -122 -124 125 129 131 132 -134 -136 139 -141 142 -143 -144 147 -149 0
x 1 -2 -3 -5 -7 9 -10 -11 12 -15 -16 20 21 -24 25 -27 28 30 -33 -37 -40 41 42 44 -45 46 -49 50 54 55 -56 -59 60 61 -62 -63 -65 -66 73 74 -75 -78 79 -84 85 -89 90 94 95 96 97 102 103 -104 108 110 112 113 114 115 -117 -121 -122 -123 125 126 -128 129 -130 -131 -133 -134 142 -144 -145 147 148 0
x 1 3 4 6 9 -10 -12 -13 -15 18 19 -22 -24 -26 -27 28 -29 30 31 32 -33 -34 37 -38 39 41 42 -43 -45 49 -50 54 -56 57 -58 -60 -61 -62 -63 64 -69 -71 75 76 77 78 79 81 83 84 -85 86 87 89 -90 93 95 96 -98 101 -106 -107 109 -110 -113 116 117 -119 -127 -128 -130 132 -134 -135 138 -139 140 -141 143 -145 146 148 0
x 1 3 -5 -6 7 8 10 11 12 -13 17 24 25 26 27 -32 33 -34 -35 -36 -38 41 -42 -43 44 45 -46 47 -51 -53 -54 62 63 -64 -65 67 68 -69 -70 72 -75 77 78 81 82 -83 85 -90 -91 92 97 -98 99 100 -101 -102 -106 108 111 112 113 115 116 119 121 -122 126 -127 129 -131 -134 -136 -137 140 141 142 -145 146 0
x -1 -4 -5 -6 7 9 -10 -11 -12 -14 17 -18 -19 -25 -27 -28 29 -32 33 -36 -37 38 41 -43 45 46 49 51 54 62 -64 -65 68 -70 75 -77 78 79 81 -85 86 87 88 90 -92 -96 -97 -98 -99 -101 102 -103 -105 -107 -109 -113 -116 117 -118 -119 -122 124 126 -128 129 -130 -131 132 -133 -134 -135 -136 -137 -138 144 -146 147 148 149 150 0
x 1 -2 -3 -4 7 10 11 13 -15 16 -17 -23 -24 -25 -27 -28 -30 37 42 43 -45 -46 -48 -49 -51 -57 60 -62 -65 -67 -68 69 70 -75 -77 78 -81 -82 83 -87 88 91 -92 -93 -95 97 -99 -102 108 -109 110 111 -112 115 117 -119 -120 -124 127 -128 -132 134 135 136 -137 139 142 -144 145 148 149 0
x 3 5 6 -11 -12 14 -15 -19 20 21 23 -24 25 -26 29 32 33 35 36 -37 38 -40 41 -44 49 -50 -51 52 -55 58 59 61 -62 -63 64 65 66 73 -74 77 -78 -79 -85 86 -88 90 -93 95 96 99 102 107 109 111 113 -114 115 118 -120 122 123 125 -128 130 -133 134 -137 138 140 141 -142 -143 -144 145 147 0
x 3 4 -5 6 9 -12 -14 -15 17 -18 19 21 22 -23 25 27 28 29 -31 36 37 38 40 -41 42 45 46 -48 -51 -53 -55 56 57 -63 66 -67 68 69 71 72 -73 -83 -84 -85 86 -87 -88 -89 90 -91 92 -97 100 101 104 -105 106 -108 111 118 120 -121 -122 123 -128 130 131 132 -133 135 -138 139 -140 141 144 146 147 148 149 0
x 3 -4 -5 6 -7 10 -11 -13 -15 -18 -19 20 22 23 -26 -27 -28 -29 30 -34 36 -37 38 -40 41 -42 -45 47 -51 52 55 59 63 -65 66 -73 -74 76 77 78 -80 -84 -86 -88 90 -93 -95 97 99 -100 -101 103 -106 108 -110 113 -114 115 117 -120 -121 -122 -123 126 -128 134 137 -140 -142 -143 -145 146 147 149 150 0
x 2 -5 -6 -9 -12 13 14 15 -16 18 -19 -20 22 -23 -24 -27 -30 -32 35 37 38 39 41 43 44 -45 -46 47 49 -50 52 55 -57 58 59 -61 62 -64 -65 -67 68 -74 -77 -78 -80 82 -85 -86 -90 -93 -95 -97 -98 99 -100 -106 108 -109 -114 116 121 -122 -123 -124 126 127 129 130 -135 136 -142 143 -144 146 147 -148 0
x 4 7 -9 11 13 17 22 23 -24 25 -26 30 32 -33 34 -35 -37 40 -41 -43 45 46 -47 -52 -53 -56 58 -59 -60 62 -64 -67 68 -69 -71 -72 78 81 82 -86 -87 89 -90 91 92 96 97 -98 101 102 -107 -108 -110 -111 114 -115 116 -117 121 124 -126 -127 -130 131 134 -136 137 -140 143 -145 147 148 0
x 1 -3 4 -7 -9 -13 -14 16 19 -24 33 40 41 42 43 -46 49 50 -51 -53 -55 -58 59 62 -65 68 69 -73 -74 -77 79 -80 -81 86 -89 -92 -93 -94 98 99 -103 105 -108 111 -112 -113 114 117 -118 -119 124 -127 128 -130 -132 134 -135 137 140 146 150 0
x -2 4 7 9 10 11 -13 -15 16 -18 21 22 -32 -35 36 37 38 -46 48 51 -52 -55 -57 -58 61 -63 -66 -67 68 69 70 72 -73 -74 -76 -79 -80 -81 -82 -83 84 -85 -88 89 91 92 -96 -97 -99 101 -102 103 -107 -108 -109 115 116 117 120 -121 126 129 131 132 -133 -135 136 137 138 -139 143 144 -146 -148 0
x -2 -6 7 -9 13 14 15 -19 -20 -22 25 -27 -30 34 -36 41 42 44 45 46 47 -49 54 55 -56 58 59 -61 63 -64 -66 67 70 71 72 -74 75 77 -78 81 82 83 -85 87 89 -91 -93 94 98 102 105 -107 108 -109 111 -112 -113 -114 115 -116 -117 -118 -121 -123 126 -127 129 -130 -131 -134 -135 136 137 -138 147 -148 150 0
x -4 -8 11 12 13 -14 15 17 18 -23 -24 -25 26 30 -32 -34 36 -40 42 -43 -44 -47 -48 -50 51 53 54 55 56 -57 -58 -60 61 63 64 66 70 -71 -73 74 76 78 -79 -81 -83 -85 -86 -88 89 92 93 -97 98 -102 -104 -106 107 -108 -109 -110 112 115 116 -119 120 123 128 -130 136 137 -143 147 -149 -150 0
x 2 3 -4 7 8 9 -10 -11 12 14 16 17 19 21 -25 26 -27 29 30 32 33 36 -37 38 -40 -42 -44 46 47 49 -50 -53 55 58 -59 64 -65 -66 69 73 -74 75 78 -80 -83 -86 87 88 -91 95 98 -99 100 102 104 -105 106 -108 -110 -113 114 115 -118 -120 121 -122 123 125 126 127 -128 -130 -132 134 -136 137 -139 140 -142 -144 145 -146 -147 -148 149 -150 0
x 1 2 -3 -5 -7 -8 -9 11 -14 18 -20 24 -26 -27 28 -29 30 32 33 36 39 43 -48 -49 50 51 52 -55 57 61 64 71 -72 -73 74 76 78 -80 -82 -83 87 -88 92 -94 -95 -96 98 -99 100 -101 -103 -105 -106 -108 109 110 -112 115 116 -118 122 -125 -128 130 132 134 135 -136 137 140 -141 -142 146 150 0
x 1 -4 9 13 14 -15 -16 -18 19 -20 24 25 28 -33 -36 37 38 40 -41 -42 43 45 47 49 -51 -53 57 -59 -60 61 62 -66 70 72 74 -75 -76 77 78 -80 81 -84 -87 89 -91 -92 -93 -95 -96 97 -101 -102 -105 109 -110 113 -115 -117 119 121 -122 -123 -124 125 -127 129 130 -131 137 140 -141 -143 -147 -149 150 0
x -1 2 3 -5 -6 -9 11 -14 -16 -17 18 19 20 23 29 30 31 37 38 -41 -43 -44 45 -46 -47 -49 -50 51 -52 -53 -55 -56 -58 -59 60 -61 -64 70 71 75 -76 78 79 80 -81 82 83 -86 -87 89 96 -98 -100 102 -103 105 -106 107 -108 -109 -110 -113 115 -116 -118 -119 -120 -121 122 -123 127 -128 129 130 131 132 -133 -134 -135 -136 140 -143 144 145 146 -149 0
x -1 -2 3 5 -6 -7 8 9 11 12 14 -16 -18 -22 -23 -25 -28 29 -31 32 -34 -36 -44 45 48 -49 50 -51 -54 55 60 -61 62 -64 68 69 70 -72 74 76 -77 -79 80 82 -83 86 87 -89 -90 -94 95 -97 -98 102 -103 104 -106 -110 -112 115 118 119 -125 -129 132 -133 135 136 -137 -143 -144 145 -146 147 -150 0
x 1 -7 -11 12 19 22 23 25 28 -29 31 -34 -36 -37 38 39 40 41 48 -52 -55 -57 -58 59 -66 67 68 69 -74 -77 81 82 -85 -86 92 -93 -95 -99 100 104 105 106 108 110 -115 -118 119 124 128 -129 130 -133 137 141 145 -148 150 0
x 1 -4 -5 7 9 -10 -11 12 -14 -17 -19 21 -23 25 26 27 28 -30 -32 -33 34 -37 -41 43 47 -48 -49 50 -55 56 -59 -61 62 -64 68 -69 74 -76 -77 78 79 -81 -83 -85 87 -89 -90 94 -95 97 98 100 101 -102 -107 -108 109 110 115 -116 -120 122 123 124 125 128 -129 -130 132 133 138 144 149 0
x 1 3 5 -8 -10 15 -18 -20 -21 23 24 29 -32 35 -37 -41 42 -43 -46 -47 -49 -53 54 -56 57 -59 -63 64 -65 -68 69 -72 -74 75 77 78 -79 81 -87 93 -96 -100 -101 103 104 105 -107 108 109 -110 -111 -113 114 -116 -118 -119 -121 -122 -125 126 127 130 132 -133 -136 137 138 -139 140 141 142 -144 -145 150 0
x 1 -4 -6 8 -9 10 14 -15 -16 19 -22 -23 27 29 32 -35 37 39 40 41 -44 -45 -50 51 53 -54 -55 56 57 59 60 -64 -67 -69 70 72 -74 -75 -78 -80 -81 82 86 87 -88 89 -90 92 -95 -96 97 -99 102 -104 -107 108 -111 112 -113 116 118 -121 122 -123 126 127 129 -130 132 140 -142 143 144 -145 146 147 -148 0
x 4 5 -8 -9 12 -13 -14 15 -16 -17 18 -23 24 -29 32 33 34 -37 38 -40 41 42 46 47 52 -53 54 -58 59 -60 62 -63 -65 67 69 72 76 77 78 -81 82 83 84 -86 -88 -89 -90 -91 93 95 98 -99 -104 105 107 108 109 -110 -113 114 -115 116 -118 -120 121 123 124 127 -129 130 -131 134 136 137 -138 -140 141 -144 -146 147 -148 -149 -150 0
x -5 -6 7 8 -9 13 -14 -17 -22 -23 24 25 26 28 -30 31 -36 -39 -41 -46 47 50 52 53 -54 -56 -58 -59 60 -63 -65 -67 -70 74 -76 -79 -80 83 -86 87 -89 90 94 -97 -98 -99 101 105 111 -112 -114 115 116 -117 -119 -121 122 124 125 129 -130 -131 132 134 135 -137 139 142 143 147 149 0
x -1 2 6 -9 -10 11 -12 13 14 17 -21 22 -24 -25 26 -29 -32 -33 -34 -36 -40 42 43 -44 45 -46 50 -51 52 53 57 63 64 -69 70 72 73 74 75 80 -83 85 -88 -92 95 -98 -99 100 -101 105 -107 -108 112 -113 -115 117 -118 -120 -121 122 123 124 125 -128 -130 -134 135 136 -137 -138 139 140 -142 -145 147 -148 -150 0
x 1 2 5 7 8 -9 12 -13 22 -23 24 27 -29 -31 -33 -35 -36 37 -38 39 40 44 -46 -47 48 -52 -53 54 -56 -57 59 62 -65 -66 67 -68 -71 72 74 76 77 -79 -80 -81 -82 85 87 89 90 -91 -95 97 98 -100 105 107 109 112 -115 119 -128 -129 -130 -131 -134 -135 -137 -139 -145 146 148 149 0
x 1 -6 7 -8 9 -11 12 15 -16 -17 19 -20 -21 23 24 25 26 28 -31 36 -37 38 -39 -40 -41 43 45 -47 51 54 65 -66 -67 -70 71 73 -76 -78 -79 -80 -88 -89 -91 93 -95 96 97 98 108 112 113 114 -116 -119 -120 -123 124 -127 -128 -130 -131 133 -134 139 140 -141 144 145 -149 -150 0
x -1 -4 -5 -6 10 11 -13 -15 16 17 -18 -19 20 24 -27 -28 -32 33 38 39 -41 -44 45 47 49 52 -53 55 -56 -59 63 66 68 69 -71 73 75 78 -79 82 83 84 86 -87 88 -91 92 93 96 99 100 101 -102 -107 -110 111 -119 -121 -123 -125 -127 130 -131 -135 136 -137 -141 142 143 144 149 150 0
x -3 12 13 -15 -17 -18 -20 25 26 27 31 -32 -35 40 43 44 -45 46 47 -49 -50 -53 -55 -56 -57 61 -63 65 67 -68 70 -77 -79 80 82 83 -87 -88 91 97 -99 102 106 108 -109 -113 114 116 117 -118 -119 121 122 123 -126 -131 -133 -135 -138 -143 145 -147 148 150 0
x -1 3 4 5 -6 7 8 9 11 -12 13 14 16 -17 -18 -24 29 30 32 -33 34 37 -38 39 41 43 -47 -48 -51 -55 -57 -58 60 69 -71 -75 76 -80 81 -82 83 89 90 -91 93 -94 95 97 101 -102 -104 -106 -107 -108 109 110 -111 115 -118 119 -120 122 -123 -124 125 128 131 -132 133 -135 137 138 -140 -142 -144 -150 0
x 1 -4 -5 -8 -11 12 14 -16 -17 18 21 -22 -26 -27 28 -32 -35 38 -42 43 -45 -46 48 51 -53 60 -61 -65 -67 68 -69 70 71 72 76 -77 81 82 83 84 85 -86 -88 -90 91 -93 96 97 -100 101 -102 103 104 105 106 107 -112 -115 117 -119 -120 121 123 125 128 133 135 -136 137 -139 -144 145 147 148 149 0
x -1 2 -4 7 -8 -9 -10 11 12 15 -16 19 -20 22 -24 26 -28 33 34 -35 -37 -38 -39 40 41 -43 46 -47 -48 49 -52 53 56 -57 -60 -63 65 -68 69 71 74 75 -77 78 81 84 86 88 -89 -90 92 96 -97 -99 -100 -107 -109 -112 -113 114 -116 -117 -119 122 -124 127 -129 -130 -131 132 -133 -134 136 137 143 146 -147 150 0
x -1 -5 10 15 18 -20 -22 -24 25 -26 -27 -28 30 32 33 34 35 38 39 40 -41 -43 -44 45 47 48 -50 -55 -59 61 65 66 67 -68 69 -70 71 -76 79 80 -83 -86 -87 89 91 -94 -95 -96 98 -99 100 101 -106 -107 -108 109 -112 -115 117 -119 -122 -123 -125 128 -132 134 -136 -139 -140 -141 -142 -144 145 -146 148 149 0
x 1 3 4 -10 -11 13 18 19 20 -21 -22 23 -24 27 29 -32 34 -36 -37 -38 -40 -41 42 -46 -48 50 -52 58 59 -61 64 -66 -68 -70 74 -75 80 83 85 -87 -88 90 -93 -95 -96 -97 -98 101 102 -107 -110 -112 115 -117 -122 124 125 129 130 -132 136 -137 141 -142 144 145 -146 0
x 1 2 -3 -5 8 9 10 14 -15 16 -17 -18 -21 22 23 -24 27 -30 32 35 -38 -39 -41 -43 -44 47 48 -50 -54 -60 -61 62 -63 -65 66 -69 71 72 74 77 -79 -80 -82 -83 -84 -86 87 88 -90 -95 97 -101 -102 103 104 108 109 111 -112 113 116 118 119 -122 123 -124 128 -129 -130 131 -132 134 135 -136 137 140 -143 145 -147 149 -150 0
x -4 -5 -6 -7 -8 -9 10 11 -12 13 14 15 17 -18 -20 21 -22 -23 24 -25 -27 28 31 -33 -34 -35 -36 -38 -39 -41 -42 43 45 -50 -52 53 57 -58 -59 64 -66 -69 70 71 75 77 -78 -79 80 -86 -87 88 -90 92 -93 94 97 -98 100 -101 110 111 112 -116 -121 -123 124 -127 132 -134 -136 138 139 140 141 143 145 -146 -147 148 0
